100
100
3000 3000 3000 3000 3000 3000 3000 3000 3000 3000 3000 3000 3000 3000 3000 3000 3000 3000 3000 3000 3000 3000 3000 3000 3000 3000 3000 3000 3000 3000 3000 3000 3000 3000 3000 3000 3000 3000 3000 3000 3000 3000 3000 3000 3000 3000 3000 3000 3000 3000 3000 3000 3000 3000 3000 3000 3000 3000 3000 3000 3000 3000 3000 3000 3000 3000 3000 3000 3000 3000 3000 3000 3000 3000 3000 3000 3000 3000 3000 3000 3000 3000 3000 3000 3000 3000 3000 3000 3000 3000 3000 3000 3000 3000 3000 3000 3000 3000 3000 3000
0 18 4
0 28 1
0 29 4
0 33 1
0 48 1
0 52 1
0 57 1
0 58 3
0 63 2
0 90 1
0 91 1
1 0 1
1 6 1
1 15 2
1 31 1
1 37 0
1 42 3
1 54 2
1 55 0
1 59 1
1 61 4
1 66 1
1 73 1
2 0 4
2 9 4
2 20 0
2 25 2
2 34 2
2 45 0
2 56 4
2 60 1
2 62 0
2 71 1
2 82 1
2 96 2
3 4 3
3 10 1
3 12 3
3 13 0
3 32 2
3 41 4
3 60 2
3 64 3
3 75 0
3 92 2
4 18 1
4 22 4
4 42 3
4 43 1
4 58 4
4 60 0
4 79 4
4 80 2
4 88 3
4 89 2
5 10 4
5 44 1
5 55 0
5 61 3
5 63 1
5 72 4
5 73 4
5 94 2
6 2 3
6 12 1
6 13 0
6 27 3
6 32 4
6 86 2
6 87 3
6 88 3
6 99 3
7 12 1
7 41 1
7 42 1
7 83 1
7 86 0
7 91 1
8 6 2
8 21 0
8 29 1
8 37 3
8 55 1
8 76 0
8 79 1
8 85 3
8 97 0
9 0 3
9 9 1
9 15 2
9 17 4
9 18 3
9 19 2
9 22 3
9 27 0
9 29 0
9 34 3
9 65 1
9 69 1
9 70 0
9 76 3
10 9 1
10 19 0
10 21 1
10 32 2
10 35 0
10 37 2
10 86 3
10 90 3
11 1 2
11 4 3
11 14 4
11 20 2
11 22 0
11 27 0
11 36 0
11 45 1
11 48 4
11 70 3
11 83 4
11 85 2
11 92 0
11 96 4
12 8 0
12 16 3
12 18 4
12 20 3
12 29 0
12 35 1
12 52 3
12 58 3
12 73 2
12 92 3
13 0 1
13 6 3
13 18 4
13 20 0
13 62 0
13 67 4
13 68 0
13 81 2
13 98 2
14 19 4
14 28 0
14 34 3
14 46 3
14 67 3
14 77 4
14 89 1
15 31 1
15 32 4
15 39 3
15 49 2
15 51 1
15 95 3
15 99 3
16 13 4
16 23 0
16 45 4
16 47 3
16 48 2
16 72 1
16 73 1
16 76 1
16 98 4
17 2 3
17 3 1
17 10 2
17 22 2
17 33 3
17 43 1
17 53 3
17 56 2
17 67 3
17 71 0
17 76 2
17 82 1
17 83 4
17 89 2
18 9 1
18 19 3
18 24 1
18 25 0
18 26 3
18 35 3
18 40 2
18 57 0
18 66 3
18 83 3
19 6 3
19 28 3
19 31 1
19 35 3
19 46 0
19 50 3
19 52 1
19 56 3
19 78 0
19 80 2
19 85 4
19 87 1
20 3 0
20 5 2
20 34 4
20 35 4
20 36 3
20 38 3
20 44 3
20 49 0
20 51 4
20 56 1
20 70 1
20 71 4
20 82 1
20 99 0
21 2 2
21 5 2
21 26 1
21 33 2
21 55 0
21 62 0
21 78 0
21 79 3
22 4 4
22 6 0
22 40 2
22 48 1
22 52 2
22 55 1
22 57 3
22 66 0
22 68 1
22 74 0
22 78 0
22 82 3
22 88 2
23 2 1
23 15 2
23 31 3
23 34 0
23 36 4
23 46 0
23 51 0
23 57 3
23 78 3
24 2 1
24 6 2
24 32 2
24 41 1
24 42 1
24 44 0
24 47 1
24 61 1
24 97 0
24 98 3
25 2 1
25 4 3
25 14 2
25 15 2
25 23 4
25 24 2
25 25 3
25 35 2
25 42 2
25 54 2
25 67 2
25 85 2
25 86 3
25 92 1
26 22 1
26 28 1
26 29 3
26 37 0
26 56 3
26 59 4
26 65 3
26 77 2
26 84 3
26 99 0
27 11 4
27 36 0
27 38 0
27 39 3
27 49 1
27 70 2
27 76 4
27 87 1
27 90 3
28 27 4
28 58 4
28 62 1
28 84 2
28 96 0
29 30 4
29 33 0
29 36 2
29 42 1
29 50 2
29 81 2
29 84 0
29 88 2
30 15 1
30 17 3
30 23 1
30 27 3
30 36 1
30 39 1
30 63 2
30 74 4
30 79 2
30 81 3
30 97 2
31 10 1
31 14 3
31 15 0
31 16 0
31 32 3
31 34 4
31 54 0
31 56 4
31 59 2
31 60 0
31 65 1
31 73 4
31 89 1
32 11 2
32 14 3
32 17 2
32 25 0
32 28 2
32 40 4
32 41 2
32 45 4
32 52 1
32 67 1
32 68 3
32 71 3
32 81 3
32 83 2
32 87 4
32 89 2
32 91 3
33 12 4
33 21 4
33 27 0
33 28 1
33 54 4
33 55 2
33 59 3
33 63 4
33 64 4
33 65 4
33 68 2
33 69 3
33 84 4
34 1 0
34 11 2
34 12 1
34 19 2
34 23 0
34 50 1
34 53 1
34 54 0
34 66 2
34 67 2
34 68 1
34 74 2
34 77 3
35 7 1
35 14 2
35 17 2
35 40 0
35 58 1
35 67 3
35 68 2
35 70 3
35 80 1
35 87 0
35 96 1
35 99 2
36 5 2
36 33 2
36 38 2
36 41 4
36 49 1
36 55 2
36 72 0
37 26 4
37 31 3
37 44 3
37 47 1
37 49 3
37 69 4
37 85 3
38 1 4
38 10 2
38 14 2
38 21 4
38 23 0
38 44 0
38 49 0
38 62 2
38 77 1
38 96 1
39 2 0
39 27 2
39 54 2
39 56 1
39 64 0
39 74 4
40 16 0
40 50 2
40 51 0
40 57 2
40 83 4
41 11 3
41 35 4
41 36 3
41 37 1
41 59 4
41 62 2
41 69 1
41 78 1
41 79 4
41 90 3
42 21 3
42 30 0
42 70 4
42 72 2
42 87 2
42 93 4
43 1 1
43 6 1
43 25 0
43 33 2
43 43 3
43 47 3
43 57 4
43 58 1
43 63 2
43 71 1
43 76 4
43 82 3
43 97 3
44 0 3
44 39 1
44 47 4
44 53 2
45 1 3
45 3 3
45 8 4
45 12 4
45 13 2
45 40 0
45 53 2
45 75 4
45 81 4
45 85 1
45 86 2
45 95 1
46 2 3
46 10 3
46 11 1
46 16 0
46 17 1
46 19 0
46 22 1
46 38 4
46 62 2
46 80 2
46 98 1
47 3 4
47 4 1
47 5 1
47 7 3
47 40 2
47 50 1
47 61 3
47 80 2
47 81 4
47 85 0
47 89 2
47 92 1
47 93 0
47 95 0
47 96 4
48 20 2
48 68 2
48 80 1
48 84 4
49 16 0
49 18 4
49 35 4
49 48 4
49 53 1
49 59 3
49 60 1
49 73 4
49 76 4
49 93 1
49 95 1
50 14 4
50 20 1
50 30 0
50 38 0
50 41 2
50 43 1
50 47 1
50 48 1
50 57 2
50 66 3
50 72 4
50 94 4
51 0 4
51 8 3
51 16 4
51 19 1
51 31 0
51 38 4
51 54 1
51 65 0
51 66 2
51 88 3
52 4 2
52 31 0
52 51 0
52 53 4
52 54 4
52 60 4
52 61 2
52 64 0
52 67 4
52 68 0
52 70 1
52 85 2
52 88 2
52 89 0
52 91 0
53 3 2
53 11 2
53 20 2
53 29 4
53 32 1
53 46 2
53 75 3
53 79 2
53 81 4
53 83 1
53 86 0
53 96 2
54 27 0
54 66 2
54 71 2
54 84 2
54 97 1
55 0 3
55 3 4
55 19 0
55 28 2
55 58 0
55 64 2
55 65 2
55 71 2
55 79 3
55 82 1
55 85 4
56 7 4
56 10 4
56 16 2
56 41 1
56 47 0
56 50 2
56 52 0
56 69 2
56 73 0
56 78 1
56 80 2
56 82 1
57 8 4
57 9 4
57 21 0
57 23 4
57 24 3
57 29 4
57 33 4
57 37 3
57 43 1
57 63 0
57 71 0
57 72 3
57 82 2
57 91 0
57 95 4
58 1 2
58 6 2
58 18 2
58 39 1
58 61 1
58 62 0
58 77 4
58 80 0
58 89 0
58 93 0
59 13 2
59 27 0
59 39 4
59 41 1
59 46 3
59 69 2
59 89 3
59 90 4
60 12 1
60 17 3
60 21 1
60 23 2
60 28 2
60 42 2
60 46 4
60 52 4
60 64 3
60 70 2
60 74 2
60 87 0
60 96 1
61 14 4
61 32 4
61 42 0
61 81 4
62 12 1
62 34 3
62 53 0
62 63 4
62 74 3
62 77 0
62 91 0
62 95 1
63 12 4
63 17 0
63 45 0
63 48 2
63 53 1
63 59 2
63 87 4
64 20 3
64 23 4
64 26 3
64 40 3
64 61 2
64 65 4
64 74 3
64 79 3
64 89 0
64 96 3
65 16 1
65 20 0
65 24 4
65 28 2
65 30 3
65 34 4
65 45 3
65 54 1
65 62 0
65 85 3
65 88 2
66 7 1
66 8 2
66 10 3
66 72 3
66 78 1
66 80 2
66 92 2
67 13 3
67 17 0
67 48 2
67 51 4
67 53 2
67 59 2
67 66 3
67 92 0
67 98 4
68 5 3
68 6 3
68 18 2
68 65 3
68 67 4
68 76 1
68 84 3
69 1 4
69 3 2
69 7 3
69 8 3
69 10 3
69 15 0
69 36 4
69 53 3
69 57 4
69 61 4
69 98 1
69 99 3
70 4 3
70 5 3
70 9 0
70 27 1
70 45 2
70 55 4
70 61 0
70 92 4
71 8 1
71 11 3
71 23 4
71 36 0
71 41 3
71 45 1
71 66 1
71 95 3
72 1 2
72 3 0
72 24 2
72 30 4
72 33 0
72 45 0
72 46 1
72 57 1
72 59 1
72 69 2
72 77 2
72 84 0
72 90 2
72 93 0
72 94 3
73 3 4
73 7 3
73 8 1
73 19 0
73 24 2
73 38 0
73 49 4
73 60 0
73 63 4
73 74 2
73 75 0
73 78 3
73 94 0
73 98 0
74 0 1
74 1 3
74 7 0
74 13 4
74 32 3
74 43 2
74 49 0
74 60 2
74 70 0
74 74 0
74 88 0
74 93 2
74 94 2
75 7 4
75 28 1
75 31 1
75 39 2
75 50 2
75 63 0
75 69 0
75 72 0
75 77 2
75 95 1
75 97 2
76 0 0
76 42 2
76 44 3
76 50 3
76 88 4
77 24 3
77 33 1
77 42 3
77 47 4
77 50 3
77 60 3
77 73 4
77 75 4
77 83 0
78 11 3
78 33 4
78 39 1
78 65 1
78 72 3
78 98 2
79 6 0
79 21 3
79 29 2
79 49 4
79 55 2
79 59 1
79 72 2
79 81 1
79 84 0
79 91 1
79 92 3
79 94 3
80 3 0
80 13 2
80 26 4
80 30 1
80 34 4
80 79 4
80 83 1
80 84 4
80 87 0
81 2 3
81 7 0
81 13 1
81 15 0
81 24 2
81 25 3
81 29 0
81 40 2
81 43 3
81 46 0
81 48 2
81 83 3
81 99 3
82 11 1
82 37 0
82 40 2
82 44 4
82 56 3
82 58 2
82 64 1
82 98 1
83 13 0
83 22 3
83 37 0
83 69 0
83 73 4
83 82 2
84 26 4
84 30 2
84 46 3
84 58 4
84 61 3
84 64 4
84 86 2
84 94 2
84 97 2
85 4 1
85 26 4
85 43 3
85 47 0
85 55 2
85 67 0
85 71 2
85 78 1
85 91 3
85 98 2
86 1 0
86 14 0
86 22 4
86 35 4
86 43 1
86 57 0
86 71 1
86 76 0
86 80 4
86 81 1
86 86 2
86 94 0
86 99 2
87 9 0
87 21 0
87 30 4
87 36 3
87 50 4
87 52 0
87 70 3
87 74 2
87 91 2
87 97 2
87 99 0
88 4 1
88 8 4
88 18 3
88 26 2
88 38 2
88 44 0
88 51 1
88 52 1
88 65 4
88 69 0
88 92 0
88 93 1
88 97 2
89 2 3
89 16 0
89 22 4
89 31 2
89 58 2
89 63 4
89 77 2
89 88 1
89 91 0
89 93 3
89 99 3
90 4 0
90 5 4
90 10 2
90 15 3
90 18 3
90 20 1
90 26 1
90 30 1
90 31 0
90 38 2
90 39 4
90 60 2
90 75 0
90 86 4
90 90 0
90 93 4
90 95 0
91 9 1
91 11 1
91 16 3
91 32 2
91 37 2
91 45 3
91 62 4
91 68 4
92 0 1
92 12 0
92 15 3
92 21 1
92 25 0
92 39 3
92 51 2
92 76 0
92 97 1
93 5 1
93 7 3
93 14 4
93 24 0
93 25 4
93 30 4
93 41 4
93 51 3
93 52 2
93 56 1
93 64 3
93 78 2
93 86 3
94 5 4
94 8 3
94 38 3
94 44 3
94 75 1
94 96 4
95 9 2
95 26 0
95 46 0
95 49 1
95 73 0
95 75 2
95 90 0
95 95 1
96 5 3
96 17 0
96 23 0
96 25 2
96 29 1
96 34 3
96 40 2
96 51 2
96 64 0
96 66 4
96 68 4
96 75 4
96 77 2
96 94 3
97 17 2
97 19 1
97 24 2
97 37 2
97 54 3
98 9 1
98 22 3
98 43 4
98 44 4
98 47 2
98 82 2
98 90 0
98 93 0
99 25 0
99 35 4
99 48 0
99 56 2
99 75 4
99 79 2
99 87 2
99 90 1
99 94 4
